(set-logic ALL)
(declare-fun seed0_T_1 () Int)
(declare-fun seed0_T_2 () Bool)
(declare-fun seed0_var_0xINPUT_408218 () String)
(assert (and (or (>= seed0_T_1 (str.len seed0_var_0xINPUT_408218)) (=> (< (- seed0_T_1 101) (+ seed0_T_1 (- 604))) (> (- seed0_T_1 115) (mod seed0_T_1 seed0_T_1)))) (or (= seed0_T_2 (= seed0_T_1 0)) (not (< (mod seed0_T_1 seed0_T_1) (- seed0_T_1 (- 612))))) (or seed0_T_2 (< (mod seed0_T_1 seed0_T_1) (- seed0_T_1 916)))))
(check-sat)
(exit)